
<<< setup

Tried aggregator 1 time.
LP Presolve eliminated 116 rows and 63 columns.
Reduced LP has 5 rows, 42 columns, and 42 nonzeros.
Presolve time = 0.00 sec. (0.05 ticks)

Iteration log . . .
Iteration:     1   Dual objective     =          1496.692656
main returns 0

<<< main


<<< done

